WARNING: for repeatability, setting FPU to use double precision
Reading from standard input... Use '--help' for help.
============================[ Problem Statistics ]=============================
|                                                                             |
|  Number of variables:          8000                                         |
|  Number of clauses:           68428                                         |
|  Parse time:                   0.02 s                                       |
|  Eliminated clauses:           0.01 Mb                                      |
|  Simplification time:          0.02 s                                       |
|                                                                             |
LBD Based Clause Deletion : 1
Rapid Deletion : 1
Almost Conflict : 1
Anti Exploration : 1
============================[ Search Statistics ]==============================
| Conflicts |          ORIGINAL         |          LEARNT          | Progress |
|           |    Vars  Clauses Literals |    Limit  Clauses Lit/Cl |          |
===============================================================================
|       100 |    1019     9273    25089 |     2000      100     19 | 84.675 % |
===============================================================================
restarts              : 2
conflicts             : 124            (3682 /sec)
decisions             : 684            (0.00 % random) (20313 /sec)
propagations          : 14504          (430731 /sec)
conflict literals     : 2754           (4.84 % deleted)
actual reward         : 0.173672
Memory used           : 11.00 MB
CPU time              : 0.033673 s

SATISFIABLE
